data/mip_solutions/furman_sahinidis/transportation/10sp-ol1_gurobi.sol
Elapsed time: 0.126811981201
Nodes explored: 5
Upper bound: 14.0
Lower bound: 14.0
y[0,0]=1
y[0,3]=1
y[0,6]=1
y[1,0]=1
y[1,4]=1
y[2,1]=1
y[3,0]=1
y[3,1]=1
y[3,2]=1
y[3,4]=1
y[3,5]=1
y[3,6]=1
y[4,0]=1
y[4,4]=1
q[0,0,0,0]=10.7
q[0,1,0,1]=4.8
q[0,1,3,1]=1.2
q[0,2,0,2]=0.4
q[0,2,3,2]=0.6
q[0,3,0,3]=1.2
q[0,3,3,3]=2.4
q[0,3,3,4]=0.4
q[0,3,5,6]=2.48689957516e-14
q[0,3,5,7]=2.48689957516e-14
q[0,4,3,4]=0.8
q[0,4,3,5]=1.2
q[0,4,5,6]=2.48689957516e-14
q[0,4,5,7]=2.48689957516e-14
q[0,5,5,6]=1.01307850997e-14
q[0,5,6,7]=2.0
q[0,6,5,6]=6.10622663544e-15
q[0,6,6,7]=2.5
q[0,7,6,7]=1.5
q[1,1,0,1]=7.2
q[1,1,4,1]=7.32
q[1,1,4,2]=0.48
q[2,1,1,1]=0.98
q[2,1,1,2]=0.22
q[2,2,1,2]=0.2
q[2,3,1,3]=0.375
q[2,3,1,5]=0.425
q[2,4,1,6]=0.4
q[2,5,1,6]=0.4
q[2,6,1,6]=0.2
q[3,2,0,2]=1.6
q[3,2,1,2]=0.28
q[3,2,4,2]=1.52
q[3,3,0,3]=6.8
q[3,3,1,3]=2.425
q[3,3,2,3]=4.375
q[3,4,1,4]=1.4
q[3,4,1,5]=0.975
q[3,4,2,4]=3.5
q[3,4,6,7]=0.925
q[3,5,5,6]=4.25
q[3,5,6,7]=2.55
q[3,6,1,6]=0.75
q[3,6,5,6]=0.25
q[3,6,5,7]=7.5
q[4,0,0,0]=7.3
q[4,0,4,0]=18.0
q[4,0,4,1]=4.68
